(set-info :source |printed by MathSAT|)
(declare-fun call_Sofar.flby () Bool)
(declare-fun call_voiture.flby4 () Int)
(declare-fun toofast () Bool)
(declare-fun move () Bool)
(declare-fun call_excludes2.excludes () Bool)
(declare-fun second () Bool)
(declare-fun meter () Bool)
(declare-fun call_voiture.flby6 () Int)
(declare-fun call_voiture.bump () Bool)
(declare-fun _OK_ () Bool)
(declare-fun call_voiture.flby () Bool)
(declare-fun bump () Bool)
(declare-fun call_voiture.stop () Bool)
(declare-fun call_Sofar.Sofar () Bool)
(declare-fun call_voiture.flby2 () Bool)
(declare-fun call_voiture.flby5 () Int)
(declare-fun call_voiture.ite3 () Int)
(declare-fun call_voiture.dist () Int)
(declare-fun call_voiture.flby3 () Bool)
(declare-fun call_voiture.ite2 () Int)
(declare-fun env () Bool)
(declare-fun call_voiture.time () Int)
(declare-fun stop () Bool)
(declare-fun dist () Int)
(declare-fun call_voiture.move () Bool)
(declare-fun call_voiture.second () Bool)
(declare-fun speed () Int)
(declare-fun time () Int)
(declare-fun param_m () Bool)
(declare-fun param_s () Bool)
(declare-fun call_voiture.meter () Bool)
(declare-fun call_voiture.toofast () Bool)
(declare-fun call_voiture.speed () Int)
(define-fun .def_382 () Bool (= call_excludes2.excludes call_Sofar.flby))
(define-fun .def_380 () Bool (= call_voiture.flby6 0))
(define-fun .def_378 () Bool (= call_voiture.flby5 0))
(define-fun .def_376 () Bool (= call_voiture.flby4 0))
(define-fun .def_373 () Bool (not call_voiture.flby2))
(define-fun .def_372 () Bool (not call_voiture.flby))
(define-fun .def_374 () Bool (and .def_372 .def_373))
(define-fun .def_375 () Bool (and call_voiture.flby3 .def_374))
(define-fun .def_377 () Bool (and .def_375 .def_376))
(define-fun .def_379 () Bool (and .def_377 .def_378))
(define-fun .def_381 () Bool (and .def_379 .def_380))
(define-fun .def_383 () Bool (and .def_381 .def_382))
(define-fun .def_370 () Bool (= call_Sofar.Sofar call_Sofar.flby))
(define-fun .def_364 () Bool (and param_s param_m))
(define-fun .def_365 () Bool (not .def_364))
(define-fun .def_367 () Bool (= .def_365 call_excludes2.excludes))
(define-fun .def_360 () Bool (= call_voiture.meter call_voiture.flby))
(define-fun .def_357 () Bool (= call_voiture.second call_voiture.flby2))
(define-fun .def_353 () Bool (= call_voiture.move call_voiture.flby3))
(define-fun .def_349 () Bool (= call_voiture.ite3 0))
(define-fun .def_345 () Bool (not call_voiture.move))
(define-fun .def_346 () Bool (or call_voiture.second .def_345))
(define-fun .def_348 () Bool (not .def_346))
(define-fun .def_350 () Bool (or .def_348 .def_349))
(define-fun .def_344 () Bool (= call_voiture.ite2 call_voiture.ite3))
(define-fun .def_347 () Bool (or .def_344 .def_346))
(define-fun .def_351 () Bool (and .def_347 .def_350))
(define-fun .def_354 () Bool (and .def_351 .def_353))
(define-fun .def_340 () Bool (= call_voiture.time call_voiture.flby6))
(define-fun .def_337 () Bool (= call_voiture.speed call_voiture.flby5))
(define-fun .def_334 () Bool (= call_voiture.dist call_voiture.flby4))
(define-fun .def_330 () Bool (= call_voiture.dist 10))
(define-fun .def_331 () Bool (= call_voiture.bump .def_330))
(define-fun .def_327 () Bool (<= 4 call_voiture.time))
(define-fun .def_328 () Bool (= call_voiture.stop .def_327))
(define-fun .def_324 () Bool (<= 3 call_voiture.speed))
(define-fun .def_325 () Bool (= call_voiture.toofast .def_324))
(define-fun .def_322 () Bool (= env call_Sofar.Sofar))
(define-fun .def_319 () Bool (= meter call_voiture.meter))
(define-fun .def_316 () Bool (= second call_voiture.second))
(define-fun .def_312 () Bool (= move call_voiture.move))
(define-fun .def_309 () Bool (= time call_voiture.time))
(define-fun .def_305 () Bool (= speed call_voiture.speed))
(define-fun .def_301 () Bool (= dist call_voiture.dist))
(define-fun .def_298 () Bool (= bump call_voiture.bump))
(define-fun .def_294 () Bool (= stop call_voiture.stop))
(define-fun .def_290 () Bool (= toofast call_voiture.toofast))
(define-fun .def_283 () Bool (and move meter))
(define-fun .def_284 () Bool (not .def_283))
(define-fun .def_280 () Bool (<= dist 9))
(define-fun .def_285 () Bool (or .def_280 .def_284))
(define-fun .def_278 () Bool (not env))
(define-fun .def_286 () Bool (or .def_278 .def_285))
(define-fun .def_287 () Bool (= _OK_ .def_286))
(define-fun .def_291 () Bool (and .def_287 .def_290))
(define-fun .def_295 () Bool (and .def_291 .def_294))
(define-fun .def_299 () Bool (and .def_295 .def_298))
(define-fun .def_302 () Bool (and .def_299 .def_301))
(define-fun .def_306 () Bool (and .def_302 .def_305))
(define-fun .def_310 () Bool (and .def_306 .def_309))
(define-fun .def_313 () Bool (and .def_310 .def_312))
(define-fun .def_317 () Bool (and .def_313 .def_316))
(define-fun .def_320 () Bool (and .def_317 .def_319))
(define-fun .def_323 () Bool (and .def_320 .def_322))
(define-fun .def_326 () Bool (and .def_323 .def_325))
(define-fun .def_329 () Bool (and .def_326 .def_328))
(define-fun .def_332 () Bool (and .def_329 .def_331))
(define-fun .def_335 () Bool (and .def_332 .def_334))
(define-fun .def_338 () Bool (and .def_335 .def_337))
(define-fun .def_341 () Bool (and .def_338 .def_340))
(define-fun .def_355 () Bool (and .def_341 .def_354))
(define-fun .def_358 () Bool (and .def_355 .def_357))
(define-fun .def_361 () Bool (and .def_358 .def_360))
(define-fun .def_368 () Bool (and .def_361 .def_367))
(define-fun .def_371 () Bool (and .def_368 .def_370))
(define-fun .def_384 () Bool (and .def_371 .def_383))
(assert .def_384)
